jobs  (incl. supersource/sink ):	52
RESOURCES
- renewable                 : 4 R
- nonrenewable              : 2 N
- doubly constrained        : 0 D
************************************************************************
PRECEDENCE RELATIONS:
jobnr.    #modes  #successors   successors
1	1	8		2 3 4 5 7 10 13 14 
2	6	8		22 21 20 19 16 12 11 6 
3	6	6		24 19 17 12 9 8 
4	6	7		28 23 21 19 18 15 11 
5	6	9		38 32 28 27 25 23 21 20 18 
6	6	8		34 33 28 24 23 18 17 15 
7	6	4		34 23 18 11 
8	6	9		39 38 32 28 27 25 22 21 20 
9	6	8		35 33 32 30 27 26 21 16 
10	6	6		39 34 33 27 23 15 
11	6	4		33 32 24 17 
12	6	7		38 34 31 30 27 26 23 
13	6	4		35 33 26 17 
14	6	4		39 37 28 17 
15	6	7		51 38 36 35 31 30 26 
16	6	7		51 45 38 37 34 31 29 
17	6	6		51 38 31 30 29 27 
18	6	5		51 41 39 36 26 
19	6	5		42 38 35 34 27 
20	6	4		51 35 33 26 
21	6	5		46 45 37 31 29 
22	6	7		51 49 47 40 37 35 30 
23	6	5		51 50 48 35 29 
24	6	4		46 37 35 29 
25	6	6		51 47 45 36 31 30 
26	6	10		50 49 47 46 45 44 43 42 40 37 
27	6	8		49 48 47 45 43 41 40 36 
28	6	3		40 35 30 
29	6	7		49 47 43 42 41 40 36 
30	6	5		46 44 43 42 41 
31	6	5		50 43 42 41 40 
32	6	5		51 48 45 42 41 
33	6	3		42 41 40 
34	6	3		50 46 40 
35	6	2		45 43 
36	6	1		44 
37	6	1		48 
38	6	1		40 
39	6	1		46 
40	6	1		52 
41	6	1		52 
42	6	1		52 
43	6	1		52 
44	6	1		52 
45	6	1		52 
46	6	1		52 
47	6	1		52 
48	6	1		52 
49	6	1		52 
50	6	1		52 
51	6	1		52 
52	1	0		
************************************************************************
REQUESTS/DURATIONS
jobnr.	mode	dur	R1	R2	R3	R4	N1	N2	
------------------------------------------------------------------------
1	1	0	0	0	0	0	0	0	
2	1	1	5	3	4	5	25	23	
	2	3	4	2	3	4	21	21	
	3	15	3	2	2	3	19	19	
	4	20	3	2	2	3	17	18	
	5	21	2	1	2	3	14	14	
	6	28	2	1	1	2	14	12	
3	1	16	3	2	4	3	13	13	
	2	17	3	1	4	3	12	11	
	3	19	3	1	3	3	12	10	
	4	22	3	1	2	2	12	8	
	5	29	2	1	2	2	12	5	
	6	30	2	1	1	2	12	4	
4	1	3	3	5	1	1	28	24	
	2	4	2	4	1	1	20	24	
	3	6	2	3	1	1	20	24	
	4	19	1	3	1	1	15	24	
	5	21	1	3	1	1	10	23	
	6	22	1	2	1	1	7	23	
5	1	5	5	3	2	2	8	23	
	2	8	4	2	2	1	7	22	
	3	12	4	2	2	1	6	22	
	4	24	4	1	2	1	5	22	
	5	25	4	1	2	1	5	21	
	6	29	4	1	2	1	4	21	
6	1	5	2	4	4	3	27	20	
	2	11	2	3	4	3	25	19	
	3	12	2	3	4	3	23	19	
	4	20	1	2	4	3	22	19	
	5	22	1	1	4	3	20	19	
	6	28	1	1	4	3	18	19	
7	1	8	2	4	5	3	10	22	
	2	15	2	3	3	3	10	20	
	3	17	2	3	3	3	10	18	
	4	23	2	3	2	2	9	14	
	5	25	2	3	2	2	9	12	
	6	26	2	3	1	2	9	7	
8	1	2	4	5	4	3	8	9	
	2	5	3	4	4	3	8	8	
	3	7	3	4	4	3	8	7	
	4	14	3	3	3	3	8	8	
	5	15	3	3	2	3	8	7	
	6	21	3	3	2	3	8	6	
9	1	4	5	3	4	3	14	9	
	2	7	4	3	4	2	13	9	
	3	11	4	3	4	2	12	8	
	4	12	3	2	3	2	12	7	
	5	21	3	2	3	1	11	5	
	6	26	3	2	2	1	11	4	
10	1	3	1	4	3	4	19	17	
	2	5	1	4	3	4	17	16	
	3	12	1	4	3	4	13	16	
	4	16	1	3	2	4	13	16	
	5	19	1	3	2	3	8	16	
	6	21	1	3	2	3	8	15	
11	1	4	4	4	5	4	24	25	
	2	11	4	4	3	4	22	22	
	3	18	4	4	3	4	20	21	
	4	22	3	3	2	3	20	19	
	5	25	3	3	1	2	18	18	
	6	26	3	3	1	2	15	14	
12	1	5	3	3	4	3	16	26	
	2	7	2	3	4	3	16	19	
	3	9	2	3	4	3	16	16	
	4	14	2	2	3	3	16	14	
	5	19	1	1	3	3	16	6	
	6	26	1	1	2	3	16	3	
13	1	7	4	3	4	5	2	27	
	2	8	4	2	3	4	2	21	
	3	9	3	2	2	4	2	19	
	4	10	3	2	2	4	2	17	
	5	13	2	2	2	4	1	12	
	6	27	2	2	1	4	1	10	
14	1	8	4	2	4	4	25	23	
	2	9	3	2	4	3	24	22	
	3	13	2	2	4	3	20	21	
	4	17	2	2	4	3	18	21	
	5	18	2	1	4	3	16	19	
	6	26	1	1	4	3	15	19	
15	1	4	3	4	4	4	19	25	
	2	6	2	3	4	3	14	23	
	3	8	2	3	4	2	12	19	
	4	12	1	2	4	2	12	13	
	5	17	1	1	4	1	7	11	
	6	24	1	1	4	1	5	4	
16	1	1	4	4	5	4	25	21	
	2	6	4	4	5	3	22	18	
	3	13	3	4	5	2	18	15	
	4	14	2	4	5	2	15	11	
	5	21	2	4	5	2	12	11	
	6	28	1	4	5	1	8	9	
17	1	6	3	3	4	4	23	27	
	2	7	3	2	4	3	18	23	
	3	10	3	2	4	3	17	19	
	4	17	3	2	3	3	13	14	
	5	23	3	2	2	2	9	10	
	6	27	3	2	2	2	7	9	
18	1	5	2	5	3	3	18	16	
	2	14	2	5	2	2	18	16	
	3	20	2	5	2	2	18	15	
	4	21	2	5	2	1	18	16	
	5	24	2	5	2	1	18	15	
	6	27	2	5	2	1	18	14	
19	1	2	4	3	2	1	7	21	
	2	3	4	3	2	1	6	18	
	3	19	4	2	2	1	6	18	
	4	22	4	2	2	1	6	13	
	5	26	4	1	2	1	6	12	
	6	29	4	1	2	1	6	9	
20	1	1	4	1	4	4	17	4	
	2	12	3	1	3	4	16	3	
	3	13	3	1	3	4	16	2	
	4	16	3	1	3	3	16	3	
	5	18	2	1	2	3	15	2	
	6	19	2	1	2	3	15	1	
21	1	10	4	4	3	3	26	21	
	2	14	4	4	2	2	26	18	
	3	19	4	3	2	2	24	17	
	4	21	3	2	2	2	23	16	
	5	22	3	1	1	1	22	14	
	6	28	3	1	1	1	22	12	
22	1	1	2	3	4	2	26	21	
	2	3	2	3	4	2	22	21	
	3	12	2	3	3	2	20	18	
	4	13	2	3	3	2	16	18	
	5	14	1	3	2	2	13	14	
	6	18	1	3	1	2	8	13	
23	1	3	4	5	4	4	9	11	
	2	6	3	4	3	4	9	10	
	3	12	3	3	3	4	7	6	
	4	13	3	3	2	4	7	5	
	5	26	2	2	2	4	6	3	
	6	27	2	2	2	4	4	1	
24	1	7	5	5	2	2	4	26	
	2	8	4	3	2	2	3	25	
	3	9	4	3	2	2	3	24	
	4	16	4	3	1	1	3	25	
	5	20	4	1	1	1	3	26	
	6	21	4	1	1	1	3	25	
25	1	2	2	5	2	3	10	12	
	2	4	2	5	1	3	9	11	
	3	5	2	5	1	3	9	10	
	4	8	2	5	1	3	8	9	
	5	23	2	5	1	3	7	7	
	6	26	2	5	1	3	7	6	
26	1	5	3	4	3	5	9	26	
	2	9	2	3	3	4	9	25	
	3	26	2	3	3	4	7	24	
	4	27	2	3	2	4	6	22	
	5	28	1	2	2	4	5	20	
	6	29	1	2	2	4	4	17	
27	1	1	2	3	4	5	19	16	
	2	2	2	2	4	4	18	16	
	3	8	2	2	4	4	17	15	
	4	11	2	2	4	3	16	13	
	5	14	2	1	4	3	14	12	
	6	18	2	1	4	2	14	11	
28	1	2	5	5	5	5	26	25	
	2	14	4	4	4	3	24	21	
	3	20	4	3	4	3	21	17	
	4	22	4	3	3	2	19	15	
	5	25	4	3	3	2	15	10	
	6	30	4	2	3	1	13	5	
29	1	2	3	4	4	4	9	17	
	2	7	3	3	4	4	8	17	
	3	10	3	3	4	4	8	16	
	4	14	3	3	3	3	8	16	
	5	15	3	2	3	2	7	16	
	6	21	3	2	2	2	7	15	
30	1	4	3	3	3	4	21	22	
	2	15	3	3	3	4	21	17	
	3	16	2	3	3	4	20	16	
	4	26	2	3	2	3	19	10	
	5	28	2	3	2	3	17	8	
	6	29	1	3	1	3	16	6	
31	1	7	3	4	3	5	13	25	
	2	16	3	3	3	4	10	25	
	3	18	3	2	3	3	9	25	
	4	21	3	2	3	3	8	24	
	5	23	3	2	3	3	4	24	
	6	24	3	1	3	2	4	24	
32	1	2	3	5	1	4	18	28	
	2	4	3	5	1	4	17	20	
	3	14	3	5	1	4	16	17	
	4	16	3	5	1	3	15	15	
	5	26	3	5	1	3	15	5	
	6	30	3	5	1	3	14	2	
33	1	10	3	2	2	1	27	23	
	2	13	3	2	2	1	25	23	
	3	18	3	2	2	1	20	23	
	4	19	2	1	2	1	12	23	
	5	25	2	1	2	1	11	23	
	6	29	2	1	2	1	4	23	
34	1	7	3	4	4	3	21	12	
	2	12	3	3	4	2	20	12	
	3	15	3	3	3	2	20	12	
	4	23	2	2	2	2	20	11	
	5	24	2	2	2	2	20	10	
	6	25	1	1	1	2	20	10	
35	1	11	2	4	2	5	11	24	
	2	12	1	3	2	5	11	24	
	3	14	1	3	2	5	9	22	
	4	17	1	2	2	5	7	21	
	5	28	1	2	1	5	6	20	
	6	29	1	2	1	5	5	20	
36	1	6	3	4	4	5	27	28	
	2	10	3	4	4	5	26	25	
	3	14	3	3	4	5	26	20	
	4	24	3	3	4	5	25	19	
	5	25	3	3	4	5	25	13	
	6	30	3	2	4	5	24	11	
37	1	9	3	1	5	3	23	5	
	2	13	2	1	3	2	23	4	
	3	15	2	1	3	2	21	4	
	4	19	2	1	2	2	20	4	
	5	23	1	1	2	1	19	3	
	6	25	1	1	1	1	19	2	
38	1	9	4	4	2	1	11	7	
	2	12	3	4	2	1	11	5	
	3	18	3	3	2	1	9	4	
	4	21	2	2	2	1	7	4	
	5	22	2	2	2	1	5	3	
	6	26	2	1	2	1	3	2	
39	1	2	3	2	5	4	9	25	
	2	3	3	2	4	4	9	22	
	3	14	3	2	4	3	9	16	
	4	18	3	2	3	3	9	10	
	5	25	3	2	3	2	8	8	
	6	29	3	2	3	1	8	2	
40	1	5	3	4	4	2	15	8	
	2	9	2	3	3	2	15	7	
	3	24	2	3	3	2	15	6	
	4	27	2	2	3	1	15	5	
	5	28	2	2	3	1	15	4	
	6	30	2	1	3	1	15	3	
41	1	5	4	1	3	2	12	6	
	2	8	4	1	3	2	11	5	
	3	15	3	1	3	2	9	4	
	4	19	3	1	3	2	9	3	
	5	21	1	1	3	2	8	4	
	6	24	1	1	3	2	7	3	
42	1	1	4	3	4	1	16	17	
	2	11	3	3	4	1	11	15	
	3	16	3	3	4	1	10	13	
	4	19	3	3	3	1	9	12	
	5	23	3	3	3	1	5	7	
	6	26	3	3	2	1	3	5	
43	1	2	1	5	3	1	14	21	
	2	4	1	5	3	1	14	20	
	3	9	1	5	3	1	11	18	
	4	13	1	5	3	1	10	14	
	5	20	1	5	3	1	7	12	
	6	24	1	5	3	1	7	9	
44	1	2	4	2	4	1	29	26	
	2	6	3	2	3	1	29	22	
	3	10	3	2	3	1	29	21	
	4	11	2	1	3	1	28	18	
	5	19	1	1	3	1	27	16	
	6	23	1	1	3	1	27	15	
45	1	3	5	5	4	5	30	21	
	2	11	3	4	3	5	24	17	
	3	14	3	4	3	5	21	14	
	4	23	2	4	2	5	21	11	
	5	25	2	4	1	5	17	7	
	6	30	1	4	1	5	13	6	
46	1	4	2	2	4	3	23	24	
	2	5	1	2	4	2	17	24	
	3	6	1	2	4	2	15	24	
	4	11	1	1	4	2	11	24	
	5	13	1	1	4	1	8	24	
	6	27	1	1	4	1	8	23	
47	1	2	5	4	4	2	27	27	
	2	5	5	3	4	2	19	22	
	3	6	5	3	4	2	18	19	
	4	7	5	3	4	2	12	15	
	5	8	5	2	4	2	11	14	
	6	30	5	1	4	2	6	7	
48	1	1	5	4	2	4	28	19	
	2	7	4	3	2	3	28	16	
	3	10	4	2	2	3	28	15	
	4	11	4	2	2	2	28	13	
	5	13	4	1	2	2	28	11	
	6	29	4	1	2	1	28	9	
49	1	3	4	2	3	5	9	26	
	2	5	4	2	3	4	7	25	
	3	9	4	2	3	3	7	23	
	4	19	4	2	3	3	5	23	
	5	23	3	2	3	1	3	22	
	6	30	3	2	3	1	2	21	
50	1	1	5	1	2	5	19	12	
	2	6	5	1	2	4	17	11	
	3	7	5	1	2	3	17	9	
	4	15	5	1	1	2	15	8	
	5	16	5	1	1	1	15	8	
	6	27	5	1	1	1	14	6	
51	1	1	4	3	3	4	15	19	
	2	7	3	3	3	3	14	19	
	3	9	2	3	3	3	12	19	
	4	12	2	3	2	3	9	18	
	5	22	2	3	1	3	6	17	
	6	26	1	3	1	3	4	17	
52	1	0	0	0	0	0	0	0	
************************************************************************

 RESOURCE AVAILABILITIES 
	R 1	R 2	R 3	R 4	N 1	N 2
	18	19	19	17	795	866

************************************************************************
